Route #1: 4 45 29 5 48 30
Route #2: 27 52 34 46 8 35 7
Route #3: 58 10 38 11 53
Route #4: 14 59 19 54 13 57 15
Route #5: 37 20 60 36 47 21 61
Route #6: 28 22 64 42 41 56 23
Route #7: 49 24 18 50 25 55 31 39
Route #8: 9 32 44 3 16 6
Route #9: 2 62 1 43 63 33 51
Route #10: 17 40 12 26
Cost 830